language Essence 1.3

letting class be
        function(1 --> 5, 2 --> 3, 3 --> 16, 4 --> 3, 5 --> 2, 6 --> 15, 7 --> 10, 8 --> 1, 9 --> 13, 10 --> 17,
                 11 --> 6, 12 --> 2, 13 --> 1, 14 --> 12, 15 --> 5, 16 --> 13, 17 --> 9, 18 --> 15, 19 --> 17, 20 --> 5,
                 21 --> 9, 22 --> 5, 23 --> 3, 24 --> 13, 25 --> 13, 26 --> 17, 27 --> 16, 28 --> 8, 29 --> 2, 30 --> 7,
                 31 --> 1, 32 --> 11, 33 --> 4, 34 --> 2, 35 --> 5, 36 --> 16, 37 --> 14, 38 --> 2, 39 --> 3, 40 --> 2,
                 41 --> 7, 42 --> 6, 43 --> 16, 44 --> 11, 45 --> 16, 46 --> 12, 47 --> 10, 48 --> 1, 49 --> 16,
                 50 --> 10, 51 --> 9, 52 --> 6, 53 --> 14, 54 --> 9, 55 --> 14, 56 --> 8, 57 --> 11, 58 --> 8, 59 --> 7,
                 60 --> 11)
letting deck_length be 125
letting deck_width be 106
letting length be
        function(1 --> 1, 2 --> 1, 3 --> 18, 4 --> 1, 5 --> 1, 6 --> 1, 7 --> 1, 8 --> 1, 9 --> 1, 10 --> 1, 11 --> 1,
                 12 --> 1, 13 --> 1, 14 --> 1, 15 --> 1, 16 --> 1, 17 --> 17, 18 --> 1, 19 --> 1, 20 --> 1, 21 --> 1,
                 22 --> 1, 23 --> 1, 24 --> 1, 25 --> 1, 26 --> 1, 27 --> 1, 28 --> 1, 29 --> 1, 30 --> 1, 31 --> 1,
                 32 --> 1, 33 --> 1, 34 --> 39, 35 --> 1, 36 --> 1, 37 --> 1, 38 --> 23, 39 --> 1, 40 --> 1, 41 --> 5,
                 42 --> 1, 43 --> 1, 44 --> 1, 45 --> 1, 46 --> 1, 47 --> 1, 48 --> 3, 49 --> 1, 50 --> 1, 51 --> 1,
                 52 --> 1, 53 --> 1, 54 --> 1, 55 --> 1, 56 --> 2, 57 --> 1, 58 --> 1, 59 --> 1, 60 --> 3)
letting n_classes be 17
letting n_containers be 60
letting separation be function({1, 3} --> 37, {9, 15} --> 62)
letting width be
        function(1 --> 1, 2 --> 1, 3 --> 79, 4 --> 1, 5 --> 1, 6 --> 1, 7 --> 1, 8 --> 1, 9 --> 1, 10 --> 1, 11 --> 1,
                 12 --> 1, 13 --> 1, 14 --> 1, 15 --> 1, 16 --> 1, 17 --> 28, 18 --> 1, 19 --> 1, 20 --> 1, 21 --> 1,
                 22 --> 1, 23 --> 1, 24 --> 1, 25 --> 1, 26 --> 1, 27 --> 1, 28 --> 1, 29 --> 1, 30 --> 1, 31 --> 1,
                 32 --> 1, 33 --> 1, 34 --> 75, 35 --> 1, 36 --> 1, 37 --> 1, 38 --> 3, 39 --> 1, 40 --> 1, 41 --> 92,
                 42 --> 1, 43 --> 1, 44 --> 1, 45 --> 1, 46 --> 1, 47 --> 1, 48 --> 80, 49 --> 1, 50 --> 1, 51 --> 1,
                 52 --> 1, 53 --> 1, 54 --> 1, 55 --> 1, 56 --> 3, 57 --> 1, 58 --> 1, 59 --> 1, 60 --> 104)
